196,563
753,458
858,378
823,452
857,648
894,514
764,150
966,314
1095,341
1101,406
801,406
695,494
654,491
663,524
677,377
672,434
575,460
427,152
406,131
307,216
282,277
611,503
560,494
600,566
491,780
382,818
524,891
830,700
225,258
681,226
1155,481
1081,610
742,791
586,593
536,511
625,51
